n_cars =  200;
n_options =  5;
n_confs =  25;
min_caps = [0, 0, 0, 0, 0];
max_caps = [1, 2, 1, 2, 1];
k = [2, 3, 3, 5, 5];
n_cars_by_confs = [1, 36, 4, 4, 29, 11, 4, 2, 3, 7, 2, 5, 1, 3, 4, 43, 10, 12, 1, 1, 2, 2, 11, 1, 1];
confs = array2d(configurations, options, [
1, 1, 0, 0, 1,
0, 0, 0, 1, 0,
0, 1, 0, 0, 1,
1, 0, 0, 0, 1,
1, 0, 0, 0, 0,
1, 1, 0, 0, 0,
0, 0, 1, 1, 0,
0, 0, 0, 1, 1,
1, 0, 0, 1, 0,
0, 1, 1, 0, 0,
0, 0, 1, 1, 1,
1, 1, 1, 0, 0,
0, 1, 1, 1, 1,
0, 1, 1, 1, 0,
1, 0, 1, 1, 0,
0, 1, 0, 0, 0,
0, 0, 0, 0, 1,
0, 1, 0, 1, 0,
1, 0, 1, 0, 0,
1, 1, 1, 0, 1,
1, 1, 0, 1, 0,
0, 1, 0, 1, 1,
0, 0, 1, 0, 0,
1, 1, 1, 0, 0,
0, 0, 1, 0, 1]);
options_ordering = [4, 5, 1, 3, 2];
